(set-logic QF_LRA)
(declare-fun X0 () Real )
(declare-fun Y0 () Real )
(declare-fun X1 () Real )
(declare-fun Y1 () Real )
(declare-fun X2 () Real )
(declare-fun Y2 () Real )
(declare-fun X3 () Real )
(declare-fun Y3 () Real )
(declare-fun X4 () Real )
(declare-fun Y4 () Real )
(declare-fun X5 () Real )
(declare-fun Y5 () Real )
(declare-fun X6 () Real )
(declare-fun Y6 () Real )
(declare-fun X7 () Real )
(declare-fun Y7 () Real )
(declare-fun X8 () Real )
(declare-fun Y8 () Real )
(declare-fun Z () Real )
(declare-fun k () Real )
(assert (let
(( $goal (>= Z k) ))
(let
((
$phi ( and 
( or ( <= ( + X0 69 ) X1 )  ( <= ( + X1 42 ) X0 )  ( <= ( + Y0 33 ) Y1 )  ( <= ( + Y1 10 ) Y0 )  )
( or ( <= ( + X0 69 ) X2 )  ( <= ( + X2 98 ) X0 )  ( <= ( + Y0 33 ) Y2 )  ( <= ( + Y2 52 ) Y0 )  )
( or ( <= ( + X0 69 ) X3 )  ( <= ( + X3 77 ) X0 )  ( <= ( + Y0 33 ) Y3 )  ( <= ( + Y3 46 ) Y0 )  )
( or ( <= ( + X0 69 ) X4 )  ( <= ( + X4 56 ) X0 )  ( <= ( + Y0 33 ) Y4 )  ( <= ( + Y4 30 ) Y0 )  )
( or ( <= ( + X0 69 ) X5 )  ( <= ( + X5 51 ) X0 )  ( <= ( + Y0 33 ) Y5 )  ( <= ( + Y5 39 ) Y0 )  )
( or ( <= ( + X0 69 ) X6 )  ( <= ( + X6 72 ) X0 )  ( <= ( + Y0 33 ) Y6 )  ( <= ( + Y6 43 ) Y0 )  )
( or ( <= ( + X0 69 ) X7 )  ( <= ( + X7 59 ) X0 )  ( <= ( + Y0 33 ) Y7 )  ( <= ( + Y7 19 ) Y0 )  )
( or ( <= ( + X0 69 ) X8 )  ( <= ( + X8 53 ) X0 )  ( <= ( + Y0 33 ) Y8 )  ( <= ( + Y8 6 ) Y0 )  )
( or ( <= ( + X1 42 ) X2 )  ( <= ( + X2 98 ) X1 )  ( <= ( + Y1 10 ) Y2 )  ( <= ( + Y2 52 ) Y1 )  )
( or ( <= ( + X1 42 ) X3 )  ( <= ( + X3 77 ) X1 )  ( <= ( + Y1 10 ) Y3 )  ( <= ( + Y3 46 ) Y1 )  )
( or ( <= ( + X1 42 ) X4 )  ( <= ( + X4 56 ) X1 )  ( <= ( + Y1 10 ) Y4 )  ( <= ( + Y4 30 ) Y1 )  )
( or ( <= ( + X1 42 ) X5 )  ( <= ( + X5 51 ) X1 )  ( <= ( + Y1 10 ) Y5 )  ( <= ( + Y5 39 ) Y1 )  )
( or ( <= ( + X1 42 ) X6 )  ( <= ( + X6 72 ) X1 )  ( <= ( + Y1 10 ) Y6 )  ( <= ( + Y6 43 ) Y1 )  )
( or ( <= ( + X1 42 ) X7 )  ( <= ( + X7 59 ) X1 )  ( <= ( + Y1 10 ) Y7 )  ( <= ( + Y7 19 ) Y1 )  )
( or ( <= ( + X1 42 ) X8 )  ( <= ( + X8 53 ) X1 )  ( <= ( + Y1 10 ) Y8 )  ( <= ( + Y8 6 ) Y1 )  )
( or ( <= ( + X2 98 ) X3 )  ( <= ( + X3 77 ) X2 )  ( <= ( + Y2 52 ) Y3 )  ( <= ( + Y3 46 ) Y2 )  )
( or ( <= ( + X2 98 ) X4 )  ( <= ( + X4 56 ) X2 )  ( <= ( + Y2 52 ) Y4 )  ( <= ( + Y4 30 ) Y2 )  )
( or ( <= ( + X2 98 ) X5 )  ( <= ( + X5 51 ) X2 )  ( <= ( + Y2 52 ) Y5 )  ( <= ( + Y5 39 ) Y2 )  )
( or ( <= ( + X2 98 ) X6 )  ( <= ( + X6 72 ) X2 )  ( <= ( + Y2 52 ) Y6 )  ( <= ( + Y6 43 ) Y2 )  )
( or ( <= ( + X2 98 ) X7 )  ( <= ( + X7 59 ) X2 )  ( <= ( + Y2 52 ) Y7 )  ( <= ( + Y7 19 ) Y2 )  )
( or ( <= ( + X2 98 ) X8 )  ( <= ( + X8 53 ) X2 )  ( <= ( + Y2 52 ) Y8 )  ( <= ( + Y8 6 ) Y2 )  )
( or ( <= ( + X3 77 ) X4 )  ( <= ( + X4 56 ) X3 )  ( <= ( + Y3 46 ) Y4 )  ( <= ( + Y4 30 ) Y3 )  )
( or ( <= ( + X3 77 ) X5 )  ( <= ( + X5 51 ) X3 )  ( <= ( + Y3 46 ) Y5 )  ( <= ( + Y5 39 ) Y3 )  )
( or ( <= ( + X3 77 ) X6 )  ( <= ( + X6 72 ) X3 )  ( <= ( + Y3 46 ) Y6 )  ( <= ( + Y6 43 ) Y3 )  )
( or ( <= ( + X3 77 ) X7 )  ( <= ( + X7 59 ) X3 )  ( <= ( + Y3 46 ) Y7 )  ( <= ( + Y7 19 ) Y3 )  )
( or ( <= ( + X3 77 ) X8 )  ( <= ( + X8 53 ) X3 )  ( <= ( + Y3 46 ) Y8 )  ( <= ( + Y8 6 ) Y3 )  )
( or ( <= ( + X4 56 ) X5 )  ( <= ( + X5 51 ) X4 )  ( <= ( + Y4 30 ) Y5 )  ( <= ( + Y5 39 ) Y4 )  )
( or ( <= ( + X4 56 ) X6 )  ( <= ( + X6 72 ) X4 )  ( <= ( + Y4 30 ) Y6 )  ( <= ( + Y6 43 ) Y4 )  )
( or ( <= ( + X4 56 ) X7 )  ( <= ( + X7 59 ) X4 )  ( <= ( + Y4 30 ) Y7 )  ( <= ( + Y7 19 ) Y4 )  )
( or ( <= ( + X4 56 ) X8 )  ( <= ( + X8 53 ) X4 )  ( <= ( + Y4 30 ) Y8 )  ( <= ( + Y8 6 ) Y4 )  )
( or ( <= ( + X5 51 ) X6 )  ( <= ( + X6 72 ) X5 )  ( <= ( + Y5 39 ) Y6 )  ( <= ( + Y6 43 ) Y5 )  )
( or ( <= ( + X5 51 ) X7 )  ( <= ( + X7 59 ) X5 )  ( <= ( + Y5 39 ) Y7 )  ( <= ( + Y7 19 ) Y5 )  )
( or ( <= ( + X5 51 ) X8 )  ( <= ( + X8 53 ) X5 )  ( <= ( + Y5 39 ) Y8 )  ( <= ( + Y8 6 ) Y5 )  )
( or ( <= ( + X6 72 ) X7 )  ( <= ( + X7 59 ) X6 )  ( <= ( + Y6 43 ) Y7 )  ( <= ( + Y7 19 ) Y6 )  )
( or ( <= ( + X6 72 ) X8 )  ( <= ( + X8 53 ) X6 )  ( <= ( + Y6 43 ) Y8 )  ( <= ( + Y8 6 ) Y6 )  )
( or ( <= ( + X7 59 ) X8 )  ( <= ( + X8 53 ) X7 )  ( <= ( + Y7 19 ) Y8 )  ( <= ( + Y8 6 ) Y7 )  )
( >= X0 0)
( <= ( + X0 69) Z)
( >= Y0 0)
( <= ( + Y0 33 ) 100)
( >= X1 0)
( <= ( + X1 42) Z)
( >= Y1 0)
( <= ( + Y1 10 ) 100)
( >= X2 0)
( <= ( + X2 98) Z)
( >= Y2 0)
( <= ( + Y2 52 ) 100)
( >= X3 0)
( <= ( + X3 77) Z)
( >= Y3 0)
( <= ( + Y3 46 ) 100)
( >= X4 0)
( <= ( + X4 56) Z)
( >= Y4 0)
( <= ( + Y4 30 ) 100)
( >= X5 0)
( <= ( + X5 51) Z)
( >= Y5 0)
( <= ( + Y5 39 ) 100)
( >= X6 0)
( <= ( + X6 72) Z)
( >= Y6 0)
( <= ( + Y6 43 ) 100)
( >= X7 0)
( <= ( + X7 59) Z)
( >= Y7 0)
( <= ( + Y7 19 ) 100)
( >= X8 0)
( <= ( + X8 53) Z)
( >= Y8 0)
( <= ( + Y8 6 ) 100)
) )
)(=> $phi $goal))))